Maximize 
+x1,1+x1,2+x1,3+x1,4+x1,5+x1,6+x2,1+x2,2+x2,3+x2,4+x2,5+x2,6+x3,1+x3,2+x3,3+x3,4+x3,5+x3,6+x4,1+x4,2+x4,3+x4,4+x4,5+x4,6+x5,1+x5,2+x5,3+x5,4+x5,5+x5,6+x6,1+x6,2+x6,3+x6,4+x6,5+x6,6
Subject to 
+x1,1+x1,2+x1,3+x1,4+x1,5+x1,6 <=1 
+x1,1+x2,1+x3,1+x4,1+x5,1+x6,1 <=1
+x2,1+x2,2+x2,3+x2,4+x2,5+x2,6 <=1 
+x1,2+x2,2+x3,2+x4,2+x5,2+x6,2 <=1
+x3,1+x3,2+x3,3+x3,4+x3,5+x3,6 <=1 
+x1,3+x2,3+x3,3+x4,3+x5,3+x6,3 <=1
+x4,1+x4,2+x4,3+x4,4+x4,5+x4,6 <=1 
+x1,4+x2,4+x3,4+x4,4+x5,4+x6,4 <=1
+x5,1+x5,2+x5,3+x5,4+x5,5+x5,6 <=1 
+x1,5+x2,5+x3,5+x4,5+x5,5+x6,5 <=1
+x6,1+x6,2+x6,3+x6,4+x6,5+x6,6 <=1 
+x1,6+x2,6+x3,6+x4,6+x5,6+x6,6 <=1
+x5,1+x6,2 <= 1 
+x1,2+x2,1 <= 1
+x4,1+x5,2+x6,3 <= 1 
+x1,3+x2,2+x3,1 <= 1
+x3,1+x4,2+x5,3+x6,4 <= 1 
+x1,4+x2,3+x3,2+x4,1 <= 1
+x2,1+x3,2+x4,3+x5,4+x6,5 <= 1 
+x1,5+x2,4+x3,3+x4,2+x5,1 <= 1
+x1,1+x2,2+x3,3+x4,4+x5,5+x6,6 <= 1 
+x1,6+x2,5+x3,4+x4,3+x5,2+x6,1 <= 1
+x1,2+x2,3+x3,4+x4,5+x5,6 <= 1 
+x2,6+x3,5+x4,4+x5,3+x6,2 <= 1
+x1,3+x2,4+x3,5+x4,6 <= 1 
+x3,6+x4,5+x5,4+x6,3 <= 1
+x1,4+x2,5+x3,6 <= 1 
+x4,6+x5,5+x6,4 <= 1
+x1,5+x2,6 <= 1 
+x5,6+x6,5 <= 1
Generals 
x1,1
x1,2
x1,3
x1,4
x1,5
x1,6
x2,1
x2,2
x2,3
x2,4
x2,5
x2,6
x3,1
x3,2
x3,3
x3,4
x3,5
x3,6
x4,1
x4,2
x4,3
x4,4
x4,5
x4,6
x5,1
x5,2
x5,3
x5,4
x5,5
x5,6
x6,1
x6,2
x6,3
x6,4
x6,5
x6,6
end